c numero: 23
c nombre: n-30-d-0.5
c densidad: 0.5
p edges 30 231
e 1 4
e 1 5
e 1 6
e 1 11
e 1 12
e 1 15
e 1 19
e 1 22
e 1 23
e 1 24
e 1 28
e 1 29
e 2 3
e 2 9
e 2 11
e 2 13
e 2 14
e 2 16
e 2 17
e 2 18
e 2 19
e 2 20
e 2 22
e 2 28
e 3 8
e 3 9
e 3 11
e 3 18
e 3 19
e 3 20
e 3 21
e 3 22
e 3 23
e 3 24
e 3 25
e 3 26
e 3 27
e 3 28
e 3 29
e 3 30
e 4 5
e 4 6
e 4 10
e 4 11
e 4 14
e 4 15
e 4 17
e 4 18
e 4 19
e 4 22
e 4 23
e 4 25
e 4 27
e 5 6
e 5 7
e 5 8
e 5 9
e 5 10
e 5 11
e 5 12
e 5 15
e 5 17
e 5 18
e 5 19
e 5 21
e 5 24
e 5 25
e 5 27
e 5 30
e 6 7
e 6 11
e 6 12
e 6 13
e 6 16
e 6 20
e 6 22
e 6 23
e 6 25
e 6 26
e 6 27
e 6 29
e 6 30
e 7 8
e 7 10
e 7 11
e 7 12
e 7 13
e 7 14
e 7 15
e 7 18
e 7 19
e 7 20
e 7 21
e 7 25
e 7 27
e 7 28
e 7 29
e 7 30
e 8 9
e 8 13
e 8 14
e 8 15
e 8 17
e 8 20
e 8 21
e 8 25
e 8 26
e 8 27
e 8 28
e 8 30
e 9 11
e 9 12
e 9 15
e 9 16
e 9 17
e 9 20
e 9 22
e 9 23
e 9 25
e 9 26
e 9 28
e 9 30
e 10 14
e 10 15
e 10 16
e 10 17
e 10 18
e 10 21
e 10 22
e 10 24
e 10 25
e 10 26
e 10 27
e 10 28
e 10 29
e 10 30
e 11 12
e 11 14
e 11 18
e 11 19
e 11 20
e 11 21
e 11 26
e 11 30
e 12 14
e 12 15
e 12 16
e 12 17
e 12 19
e 12 21
e 12 23
e 12 24
e 12 25
e 12 27
e 12 28
e 12 30
e 13 14
e 13 15
e 13 19
e 13 20
e 13 21
e 13 22
e 13 23
e 13 24
e 13 25
e 13 26
e 13 27
e 13 30
e 14 16
e 14 19
e 14 21
e 14 22
e 14 24
e 14 26
e 14 28
e 15 17
e 15 18
e 15 19
e 15 20
e 15 24
e 15 27
e 15 28
e 16 17
e 16 19
e 16 20
e 16 21
e 16 23
e 16 26
e 17 19
e 17 23
e 17 24
e 17 25
e 17 29
e 18 21
e 18 22
e 18 23
e 18 24
e 18 26
e 18 27
e 18 29
e 18 30
e 19 20
e 19 23
e 19 24
e 19 29
e 19 30
e 20 22
e 20 24
e 20 25
e 20 26
e 20 29
e 21 23
e 21 26
e 21 28
e 21 30
e 22 23
e 22 27
e 22 28
e 23 25
e 23 26
e 23 27
e 24 25
e 24 28
e 24 29
e 25 28
e 25 29
e 26 27
e 26 28
e 27 28
e 28 29
e 29 30
